p cnf 120 707
109 82 85 88 94 97 0
-109 -82 0
-109 -85 0
-109 -88 0
-109 -94 0
-109 -97 0
-82 -85 0
-82 -88 0
-82 -94 0
-82 -97 0
-85 -88 0
-85 -94 0
-85 -97 0
-88 -94 0
-88 -97 0
-94 -97 0
110 83 86 89 95 98 0
-110 -83 0
-110 -86 0
-110 -89 0
-110 -95 0
-110 -98 0
-83 -86 0
-83 -89 0
-83 -95 0
-83 -98 0
-86 -89 0
-86 -95 0
-86 -98 0
-89 -95 0
-89 -98 0
-95 -98 0
111 84 87 90 96 99 0
-111 -84 0
-111 -87 0
-111 -90 0
-111 -96 0
-111 -99 0
-84 -87 0
-84 -90 0
-84 -96 0
-84 -99 0
-87 -90 0
-87 -96 0
-87 -99 0
-90 -96 0
-90 -99 0
-96 -99 0
1 2 3 0
-1 -2 0
-1 -3 0
-2 -3 0
13 14 15 0
-13 -14 0
-13 -15 0
-14 -15 0
25 26 27 0
-25 -26 0
-25 -27 0
-26 -27 0
55 58 61 0
-55 -58 0
-55 -61 0
-58 -61 0
65 68 71 0
-65 -68 0
-65 -71 0
-68 -71 0
75 78 81 0
-75 -78 0
-75 -81 0
-78 -81 0
1 10 19 4 13 22 7 16 25 0
-1 -10 0
-1 -19 0
-1 -4 0
-1 -13 0
-1 -22 0
-1 -7 0
-1 -16 0
-1 -25 0
-10 -19 0
-10 -4 0
-10 -13 0
-10 -22 0
-10 -7 0
-10 -16 0
-10 -25 0
-19 -4 0
-19 -13 0
-19 -22 0
-19 -7 0
-19 -16 0
-19 -25 0
-4 -13 0
-4 -22 0
-4 -7 0
-4 -16 0
-4 -25 0
-13 -22 0
-13 -7 0
-13 -16 0
-13 -25 0
-22 -7 0
-22 -16 0
-22 -25 0
-7 -16 0
-7 -25 0
-16 -25 0
2 11 20 5 14 23 8 17 26 0
-2 -11 0
-2 -20 0
-2 -5 0
-2 -14 0
-2 -23 0
-2 -8 0
-2 -17 0
-2 -26 0
-11 -20 0
-11 -5 0
-11 -14 0
-11 -23 0
-11 -8 0
-11 -17 0
-11 -26 0
-20 -5 0
-20 -14 0
-20 -23 0
-20 -8 0
-20 -17 0
-20 -26 0
-5 -14 0
-5 -23 0
-5 -8 0
-5 -17 0
-5 -26 0
-14 -23 0
-14 -8 0
-14 -17 0
-14 -26 0
-23 -8 0
-23 -17 0
-23 -26 0
-8 -17 0
-8 -26 0
-17 -26 0
3 12 21 6 15 24 9 18 27 0
-3 -12 0
-3 -21 0
-3 -6 0
-3 -15 0
-3 -24 0
-3 -9 0
-3 -18 0
-3 -27 0
-12 -21 0
-12 -6 0
-12 -15 0
-12 -24 0
-12 -9 0
-12 -18 0
-12 -27 0
-21 -6 0
-21 -15 0
-21 -24 0
-21 -9 0
-21 -18 0
-21 -27 0
-6 -15 0
-6 -24 0
-6 -9 0
-6 -18 0
-6 -27 0
-15 -24 0
-15 -9 0
-15 -18 0
-15 -27 0
-24 -9 0
-24 -18 0
-24 -27 0
-9 -18 0
-9 -27 0
-18 -27 0
28 37 46 31 40 49 34 43 52 0
-28 -37 0
-28 -46 0
-28 -31 0
-28 -40 0
-28 -49 0
-28 -34 0
-28 -43 0
-28 -52 0
-37 -46 0
-37 -31 0
-37 -40 0
-37 -49 0
-37 -34 0
-37 -43 0
-37 -52 0
-46 -31 0
-46 -40 0
-46 -49 0
-46 -34 0
-46 -43 0
-46 -52 0
-31 -40 0
-31 -49 0
-31 -34 0
-31 -43 0
-31 -52 0
-40 -49 0
-40 -34 0
-40 -43 0
-40 -52 0
-49 -34 0
-49 -43 0
-49 -52 0
-34 -43 0
-34 -52 0
-43 -52 0
29 38 47 32 41 50 35 44 53 0
-29 -38 0
-29 -47 0
-29 -32 0
-29 -41 0
-29 -50 0
-29 -35 0
-29 -44 0
-29 -53 0
-38 -47 0
-38 -32 0
-38 -41 0
-38 -50 0
-38 -35 0
-38 -44 0
-38 -53 0
-47 -32 0
-47 -41 0
-47 -50 0
-47 -35 0
-47 -44 0
-47 -53 0
-32 -41 0
-32 -50 0
-32 -35 0
-32 -44 0
-32 -53 0
-41 -50 0
-41 -35 0
-41 -44 0
-41 -53 0
-50 -35 0
-50 -44 0
-50 -53 0
-35 -44 0
-35 -53 0
-44 -53 0
30 39 48 33 42 51 36 45 54 0
-30 -39 0
-30 -48 0
-30 -33 0
-30 -42 0
-30 -51 0
-30 -36 0
-30 -45 0
-30 -54 0
-39 -48 0
-39 -33 0
-39 -42 0
-39 -51 0
-39 -36 0
-39 -45 0
-39 -54 0
-48 -33 0
-48 -42 0
-48 -51 0
-48 -36 0
-48 -45 0
-48 -54 0
-33 -42 0
-33 -51 0
-33 -36 0
-33 -45 0
-33 -54 0
-42 -51 0
-42 -36 0
-42 -45 0
-42 -54 0
-51 -36 0
-51 -45 0
-51 -54 0
-36 -45 0
-36 -54 0
-45 -54 0
28 37 46 29 38 47 30 39 48 0
-28 -37 0
-28 -46 0
-28 -29 0
-28 -38 0
-28 -47 0
-28 -30 0
-28 -39 0
-28 -48 0
-37 -46 0
-37 -29 0
-37 -38 0
-37 -47 0
-37 -30 0
-37 -39 0
-37 -48 0
-46 -29 0
-46 -38 0
-46 -47 0
-46 -30 0
-46 -39 0
-46 -48 0
-29 -38 0
-29 -47 0
-29 -30 0
-29 -39 0
-29 -48 0
-38 -47 0
-38 -30 0
-38 -39 0
-38 -48 0
-47 -30 0
-47 -39 0
-47 -48 0
-30 -39 0
-30 -48 0
-39 -48 0
31 40 49 32 41 50 33 42 51 0
-31 -40 0
-31 -49 0
-31 -32 0
-31 -41 0
-31 -50 0
-31 -33 0
-31 -42 0
-31 -51 0
-40 -49 0
-40 -32 0
-40 -41 0
-40 -50 0
-40 -33 0
-40 -42 0
-40 -51 0
-49 -32 0
-49 -41 0
-49 -50 0
-49 -33 0
-49 -42 0
-49 -51 0
-32 -41 0
-32 -50 0
-32 -33 0
-32 -42 0
-32 -51 0
-41 -50 0
-41 -33 0
-41 -42 0
-41 -51 0
-50 -33 0
-50 -42 0
-50 -51 0
-33 -42 0
-33 -51 0
-42 -51 0
34 43 52 35 44 53 36 45 54 0
-34 -43 0
-34 -52 0
-34 -35 0
-34 -44 0
-34 -53 0
-34 -36 0
-34 -45 0
-34 -54 0
-43 -52 0
-43 -35 0
-43 -44 0
-43 -53 0
-43 -36 0
-43 -45 0
-43 -54 0
-52 -35 0
-52 -44 0
-52 -53 0
-52 -36 0
-52 -45 0
-52 -54 0
-35 -44 0
-35 -53 0
-35 -36 0
-35 -45 0
-35 -54 0
-44 -53 0
-44 -36 0
-44 -45 0
-44 -54 0
-53 -36 0
-53 -45 0
-53 -54 0
-36 -45 0
-36 -54 0
-45 -54 0
55 64 73 56 65 74 57 66 75 0
-55 -64 0
-55 -73 0
-55 -56 0
-55 -65 0
-55 -74 0
-55 -57 0
-55 -66 0
-55 -75 0
-64 -73 0
-64 -56 0
-64 -65 0
-64 -74 0
-64 -57 0
-64 -66 0
-64 -75 0
-73 -56 0
-73 -65 0
-73 -74 0
-73 -57 0
-73 -66 0
-73 -75 0
-56 -65 0
-56 -74 0
-56 -57 0
-56 -66 0
-56 -75 0
-65 -74 0
-65 -57 0
-65 -66 0
-65 -75 0
-74 -57 0
-74 -66 0
-74 -75 0
-57 -66 0
-57 -75 0
-66 -75 0
58 67 76 59 68 77 60 69 78 0
-58 -67 0
-58 -76 0
-58 -59 0
-58 -68 0
-58 -77 0
-58 -60 0
-58 -69 0
-58 -78 0
-67 -76 0
-67 -59 0
-67 -68 0
-67 -77 0
-67 -60 0
-67 -69 0
-67 -78 0
-76 -59 0
-76 -68 0
-76 -77 0
-76 -60 0
-76 -69 0
-76 -78 0
-59 -68 0
-59 -77 0
-59 -60 0
-59 -69 0
-59 -78 0
-68 -77 0
-68 -60 0
-68 -69 0
-68 -78 0
-77 -60 0
-77 -69 0
-77 -78 0
-60 -69 0
-60 -78 0
-69 -78 0
61 70 79 62 71 80 63 72 81 0
-61 -70 0
-61 -79 0
-61 -62 0
-61 -71 0
-61 -80 0
-61 -63 0
-61 -72 0
-61 -81 0
-70 -79 0
-70 -62 0
-70 -71 0
-70 -80 0
-70 -63 0
-70 -72 0
-70 -81 0
-79 -62 0
-79 -71 0
-79 -80 0
-79 -63 0
-79 -72 0
-79 -81 0
-62 -71 0
-62 -80 0
-62 -63 0
-62 -72 0
-62 -81 0
-71 -80 0
-71 -63 0
-71 -72 0
-71 -81 0
-80 -63 0
-80 -72 0
-80 -81 0
-63 -72 0
-63 -81 0
-72 -81 0
1 4 7  -28 0
1 4 7  -29 0
1 4 7  -30 0
28 29 30  -1 0
28 29 30  -4 0
28 29 30  -7 0
2 5 8  -31 0
2 5 8  -32 0
2 5 8  -33 0
31 32 33  -2 0
31 32 33  -5 0
31 32 33  -8 0
3 6 9  -34 0
3 6 9  -35 0
3 6 9  -36 0
34 35 36  -3 0
34 35 36  -6 0
34 35 36  -9 0
10 13 16  -37 0
10 13 16  -38 0
10 13 16  -39 0
37 38 39  -10 0
37 38 39  -13 0
37 38 39  -16 0
11 14 17  -40 0
11 14 17  -41 0
11 14 17  -42 0
40 41 42  -11 0
40 41 42  -14 0
40 41 42  -17 0
12 15 18  -43 0
12 15 18  -44 0
12 15 18  -45 0
43 44 45  -12 0
43 44 45  -15 0
43 44 45  -18 0
19 22 25  -46 0
19 22 25  -47 0
19 22 25  -48 0
46 47 48  -19 0
46 47 48  -22 0
46 47 48  -25 0
20 23 26  -49 0
20 23 26  -50 0
20 23 26  -51 0
49 50 51  -20 0
49 50 51  -23 0
49 50 51  -26 0
21 24 27  -52 0
21 24 27  -53 0
21 24 27  -54 0
52 53 54  -21 0
52 53 54  -24 0
52 53 54  -27 0
28 31 34  -55 0
28 31 34  -56 0
28 31 34  -57 0
55 56 57  -28 0
55 56 57  -31 0
55 56 57  -34 0
29 32 35  -58 0
29 32 35  -59 0
29 32 35  -60 0
58 59 60  -29 0
58 59 60  -32 0
58 59 60  -35 0
30 33 36  -61 0
30 33 36  -62 0
30 33 36  -63 0
61 62 63  -30 0
61 62 63  -33 0
61 62 63  -36 0
37 40 43  -64 0
37 40 43  -65 0
37 40 43  -66 0
64 65 66  -37 0
64 65 66  -40 0
64 65 66  -43 0
38 41 44  -67 0
38 41 44  -68 0
38 41 44  -69 0
67 68 69  -38 0
67 68 69  -41 0
67 68 69  -44 0
39 42 45  -70 0
39 42 45  -71 0
39 42 45  -72 0
70 71 72  -39 0
70 71 72  -42 0
70 71 72  -45 0
46 49 52  -73 0
46 49 52  -74 0
46 49 52  -75 0
73 74 75  -46 0
73 74 75  -49 0
73 74 75  -52 0
47 50 53  -76 0
47 50 53  -77 0
47 50 53  -78 0
76 77 78  -47 0
76 77 78  -50 0
76 77 78  -53 0
48 51 54  -79 0
48 51 54  -80 0
48 51 54  -81 0
79 80 81  -48 0
79 80 81  -51 0
79 80 81  -54 0
109 82 94 97 -1 0
109 82 94 97 -10 0
109 82 94 97 -19 0
109 82 88 94 -5 0
109 82 88 94 -14 0
109 82 88 94 -23 0
109 82 85 94 -9 0
109 82 85 94 -18 0
109 82 85 94 -27 0
110 83 95 98 -28 0
110 83 95 98 -37 0
110 83 95 98 -46 0
110 83 89 95 -32 0
110 83 89 95 -41 0
110 83 89 95 -50 0
110 83 86 95 -36 0
110 83 86 95 -45 0
110 83 86 95 -54 0
111 84 96 99 -55 0
111 84 96 99 -64 0
111 84 96 99 -73 0
111 84 90 96 -59 0
111 84 90 96 -68 0
111 84 90 96 -77 0
111 84 87 96 -63 0
111 84 87 96 -72 0
111 84 87 96 -81 0
85 -2 0
85 -11 0
85 -20 0
88 -3 0
88 -12 0
88 -21 0
85 -4 0
85 -13 0
85 -22 0
97 -6 0
97 -15 0
97 -24 0
88 -7 0
88 -16 0
88 -25 0
97 -8 0
97 -17 0
97 -26 0
86 -29 0
86 -38 0
86 -47 0
89 -30 0
89 -39 0
89 -48 0
86 -31 0
86 -40 0
86 -49 0
98 -33 0
98 -42 0
98 -51 0
89 -34 0
89 -43 0
89 -52 0
98 -35 0
98 -44 0
98 -53 0
87 -56 0
87 -65 0
87 -74 0
90 -57 0
90 -66 0
90 -75 0
87 -58 0
87 -67 0
87 -76 0
99 -60 0
99 -69 0
99 -78 0
90 -61 0
90 -70 0
90 -79 0
99 -62 0
99 -71 0
99 -80 0
110 -109 0
111 -110 0
